row=8;
column=8;
left=[0, 0, 25, 22, 13, 16, 0, 0];
right=[0, 0, 18, 14, 26, 8, 0, 13];
top=[19, 0, 14, 0, 18, 0, 27, 15];
bottom=[0, 0, 24, 0, 23, 15, 0, 0];
Board=[|0,0,0,0,0,1,0,0|0,0,0,0,0,0,0,0|0,0,0,0,0,0,0,0|0,0,7,0,0,0,0,0|0,0,0,0,0,0,0,0|0,0,0,0,0,0,0,0|0,0,0,0,0,0,0,0|0,0,0,0,0,0,0,5|]